files/upTests/__issues/120-funcToSet-matrix1d/0001.eprime
language ESSENCE' 1.0

given a: int
given b: int
find fs_AsReln_RelationAsSet_SetExplicitVarSize_tuple1:
        matrix indexed by [int(1..(b - a + 1) * 6)] of bool
find fs_AsReln_RelationAsSet_SetExplicitVarSize_tuple2_tuple1:
        matrix indexed by [int(1..(b - a + 1) * 6)] of int(a..b)
find fs_AsReln_RelationAsSet_SetExplicitVarSize_tuple2_tuple2_SetExplicit_tuple1:
        matrix indexed by [int(1..(b - a + 1) * 6), int(1..2)] of int(10, 11)
find fs_AsReln_RelationAsSet_SetExplicitVarSize_tuple2_tuple2_SetExplicit_tuple2:
        matrix indexed by [int(1..(b - a + 1) * 6), int(1..2)] of int(12, 13)
such that
    forAll v__0 : int(a..b)
        . (sum v__1 : int(1..(b - a + 1) * 6)
               . fs_AsReln_RelationAsSet_SetExplicitVarSize_tuple1[v__1]
                 *
                 (v__0 = fs_AsReln_RelationAsSet_SetExplicitVarSize_tuple2_tuple1[v__1]))
          =
          1,
    forAll v__0 : int(1..(b - a + 1) * 6)
        . fs_AsReln_RelationAsSet_SetExplicitVarSize_tuple2_tuple2_SetExplicit_tuple1[v__0,
                                                                                      1]
          <
          fs_AsReln_RelationAsSet_SetExplicitVarSize_tuple2_tuple2_SetExplicit_tuple1[v__0,
                                                                                      2]
          \/
          fs_AsReln_RelationAsSet_SetExplicitVarSize_tuple2_tuple2_SetExplicit_tuple1[v__0,
                                                                                      1]
          =
          fs_AsReln_RelationAsSet_SetExplicitVarSize_tuple2_tuple2_SetExplicit_tuple1[v__0,
                                                                                      2]
          /\
          fs_AsReln_RelationAsSet_SetExplicitVarSize_tuple2_tuple2_SetExplicit_tuple2[v__0,
                                                                                      1]
          <
          fs_AsReln_RelationAsSet_SetExplicitVarSize_tuple2_tuple2_SetExplicit_tuple2[v__0,
                                                                                      2],
    forAll v__0 : int(1..(b - a + 1) * 6 - 1)
        . fs_AsReln_RelationAsSet_SetExplicitVarSize_tuple1[v__0]
          /\
          fs_AsReln_RelationAsSet_SetExplicitVarSize_tuple1[v__0 + 1]
          ->
          fs_AsReln_RelationAsSet_SetExplicitVarSize_tuple2_tuple1[v__0]
          <
          fs_AsReln_RelationAsSet_SetExplicitVarSize_tuple2_tuple1[v__0 + 1]
          \/
          fs_AsReln_RelationAsSet_SetExplicitVarSize_tuple2_tuple1[v__0]
          =
          fs_AsReln_RelationAsSet_SetExplicitVarSize_tuple2_tuple1[v__0 + 1]
          /\
          (fs_AsReln_RelationAsSet_SetExplicitVarSize_tuple2_tuple2_SetExplicit_tuple1[v__0,
                                                                                       1]
           <
           fs_AsReln_RelationAsSet_SetExplicitVarSize_tuple2_tuple2_SetExplicit_tuple1[v__0
                                                                                       +
                                                                                       1,
                                                                                       1]
           \/
           fs_AsReln_RelationAsSet_SetExplicitVarSize_tuple2_tuple2_SetExplicit_tuple1[v__0,
                                                                                       1]
           =
           fs_AsReln_RelationAsSet_SetExplicitVarSize_tuple2_tuple2_SetExplicit_tuple1[v__0
                                                                                       +
                                                                                       1,
                                                                                       1]
           /\
           fs_AsReln_RelationAsSet_SetExplicitVarSize_tuple2_tuple2_SetExplicit_tuple2[v__0,
                                                                                       1]
           <
           fs_AsReln_RelationAsSet_SetExplicitVarSize_tuple2_tuple2_SetExplicit_tuple2[v__0
                                                                                       +
                                                                                       1,
                                                                                       1]
           \/
           fs_AsReln_RelationAsSet_SetExplicitVarSize_tuple2_tuple2_SetExplicit_tuple1[v__0,
                                                                                       1]
           =
           fs_AsReln_RelationAsSet_SetExplicitVarSize_tuple2_tuple2_SetExplicit_tuple1[v__0
                                                                                       +
                                                                                       1,
                                                                                       1]
           /\
           fs_AsReln_RelationAsSet_SetExplicitVarSize_tuple2_tuple2_SetExplicit_tuple2[v__0,
                                                                                       1]
           =
           fs_AsReln_RelationAsSet_SetExplicitVarSize_tuple2_tuple2_SetExplicit_tuple2[v__0
                                                                                       +
                                                                                       1,
                                                                                       1]
           /\
           (fs_AsReln_RelationAsSet_SetExplicitVarSize_tuple2_tuple2_SetExplicit_tuple1[v__0,
                                                                                        2]
            <
            fs_AsReln_RelationAsSet_SetExplicitVarSize_tuple2_tuple2_SetExplicit_tuple1[v__0
                                                                                        +
                                                                                        1,
                                                                                        2]
            \/
            fs_AsReln_RelationAsSet_SetExplicitVarSize_tuple2_tuple2_SetExplicit_tuple1[v__0,
                                                                                        2]
            =
            fs_AsReln_RelationAsSet_SetExplicitVarSize_tuple2_tuple2_SetExplicit_tuple1[v__0
                                                                                        +
                                                                                        1,
                                                                                        2]
            /\
            fs_AsReln_RelationAsSet_SetExplicitVarSize_tuple2_tuple2_SetExplicit_tuple2[v__0,
                                                                                        2]
            <
            fs_AsReln_RelationAsSet_SetExplicitVarSize_tuple2_tuple2_SetExplicit_tuple2[v__0
                                                                                        +
                                                                                        1,
                                                                                        2])),
    forAll v__0 : int(1..(b - a + 1) * 6 - 1)
        . fs_AsReln_RelationAsSet_SetExplicitVarSize_tuple1[v__0]
          <=
          fs_AsReln_RelationAsSet_SetExplicitVarSize_tuple1[v__0 + 1]
